start=1;

limit = 6;

n = 15;

m=[|-1,12,11,15,-1,11,-1,6,9,-1,7,8,-1,12,12,
|8,-1,18,-1,-1,-1,13,7,-1,19,-1,16,-1,12,9,
|-1,15,-1,19,5,9,11,4,0,-1,12,3,13,20,-1,
|17,17,8,-1,-1,-1,3,-1,-1,9,-1,-1,8,-1,-1,
|-1,-1,18,-1,-1,17,-1,-1,13,-1,5,-1,-1,-1,18,
|11,14,-1,20,-1,-1,11,15,-1,-1,2,-1,3,5,-1,
|8,1,-1,13,-1,11,-1,0,12,-1,2,8,10,0,0,
|0,0,-1,17,15,-1,-1,-1,-1,-1,-1,-1,18,-1,-1,
|5,17,-1,19,-1,-1,-1,2,-1,-1,-1,16,20,-1,2,
|1,19,10,-1,-1,-1,-1,13,-1,-1,-1,-1,19,19,-1,
|-1,11,-1,10,0,-1,-1,-1,17,-1,-1,-1,-1,18,-1,
|-1,11,-1,11,-1,-1,6,17,12,2,17,-1,3,-1,-1,
|6,-1,16,6,-1,-1,-1,12,9,-1,-1,1,-1,-1,7,
|-1,-1,-1,17,-1,11,8,-1,2,-1,1,-1,14,-1,-1,
|-1,7,16,-1,-1,8,-1,4,20,-1,18,17,-1,-1,-1,
|];